SYSTEM = NiO
#GGA = PE

#Electronic minimization
PREC = Accurate
ENCUT = 600
EDIFF = 1E-9
LORBIT  = 11
LREAL = .FALSE.
ISTART  = 0
NPAR  = 4
#ICHARG =  1
VOSKOWN = 1
LWAVE = .FALSE.
LCHARG = .FALSE.
NELMIN = 10
NELM = 500
SYMPREC = 1E-8

#IBRION = 2 
#EDIFFG = -1E-3 
#ISIF = 3 
#NSW = 500 
#POTIM = 0.2

#DOS
ISMEAR = -5
SIGMA = 0.2
#NEDOS = 3000 

#Magnetism
# The DEFINITION of atomic spins which are constrained (M_CONSTR in INCAR, MW in constrmag.F/OSZICAR):
# \vec{M}_{I} =
# \int_{\Omega_{I}} \vec{m}(\mathbf{r}) F_{I}(\mathbf{r}) d\mathbf{r}

#External magneitc field (Zeeman field)
Bfield = 0 0 0                 # External field in Cartesian coordinate (X,Y,Z), The unit is Tesla.

#Non-collinear
ISYM = -1
RWIGS = 1.286 0.820            # Wigner-Seitz radius (in angstrom) for each atom type in the system.
GGA_COMPAT = .FALSE.           # Restore the full lattice symmetry for gradient corrected functionals. Recommended.
LASPH = .TRUE.                 # Non-spherical contribution to the gradient of the density. Recommended.
ISPIN = 2                      # Does not matter in non-collinear calculation.
LNONCOLLINEAR = .TRUE.
LSORBIT  = .TRUE.

#SASC
I_CONSTRAINED_M = 2
MAGMOM =   0.75914 0.16146 -1.00688 -0.67954 -0.91284 0.56668 0.00000 0.00000 0.00000 0.00000 0.00000 0.00000 
M_CONSTR = 0.75914 0.16146 -1.00688 -0.67954 -0.91284 0.56668 0.00000 0.00000 0.00000 0.00000 0.00000 0.00000 
SCTYPE = 1                     # Type of SASC calculation   0: noSASC  1: SASC(L)  2: SASC(Q)  3: SASC(QL)

#SASC(L)
IDECOSC = 0                    # Whether Lagrangian coefficients are coupled   0: coupled  1: decoupled between atoms (deprecated)  2: decoupled between every Cartesian component (deprecated)
LAMBDA   = 12*0                # Initial Lagrangian coefficients for SASC(L), when SCTYPE = 0, it has to be a scalar.
CONSTRL  = 6*1 6*0             # Whether the component is constrained or not   0: not constrained  1: constrained
NSC = 100                      # Maximum number of steps for each inner optimization
NSCMIN = 2                     # Minimum number of steps for each inner optimization
SCDIFF = 1E-8                  # Convergence criterion of iteration (RMS)
SCCONVB_GRAD = 0.5 -1          # Break condition for local gradients of spins w.r.t. Lagrangian coefficients (local field)   -1: off for the element

IDECAY_GRAD = 0                # Decay policy of gradient break condition   0: no decay  1: exponential decay  2: step down
SCDECAY_GRAD = 0.9             # Exponetial base of decayed gradient break condition (IDECAY_GRAD = 1)
SCGRADB = 0.1                  # Lower bound of exponetially decayed gradient break condition
NGRAD = 2                      # Number of "steps" the gradient break condition curve includes (IDECAY_GRAD = 2)
NGRAD_STEP = 200 400           # Indices in the outer loop where the gradient break condition discontinuously decay
NGRAD_VALUE = 1.7 -1 \         # SCCONVB_GRAD for corresponding "steps"
              1.5 -1 

SCDECAY = -1                   # Exponential decay of convergence criterion   -1: no decay  >0,<1: exponential base
SCDIFFB = 1E-7                 # Lower bound of criterion decay, not gonna work if SCDECAY = -1  
SCCONVB = -1                   # Break condition for Lagrangian coefficients difference between two inner steps   -1: this condition is off
INISC = 0.01                   # Initial trial step size
SCCUT = 3                      # Restriction of step size
NELMSCI = 1                    # Number of electronic steps BEFORE SASC(L)
NELMSCT = 0                    # Number of INTERMEDIATE normal electronic steps
IALGOSC = 1                    # Inner optimization algorithm   1: CG(F-R) 2: CG(P-R) 3: CG(H-S) 4: CG(D-Y)
IALGOSC_DIAG = 1               # Inner diagonalization algorithm   1: sub-space rotation  2: Blocked-Davidson  3: sub-space rotation with B-D for the last step
LCUTSC_TRIAL = .TRUE.          # Whether trial step size is updated acoording to last-step optimal value   TRUE: update  FALSE: do not update
LDESC = .FALSE.                # Debug mode   TRUE: on  FALSE: off

#SASC(Q)
LAMBDA_Q   = 10 10 10 10 10 10 # Initial Lagrangian coefficients for SASC(Q)
CONSTRL_Q  = 1 1 1 1 1 1       # Whether the component is constrained or not   0: not constrained  1: constrained
NSC_Q = 500                    # Maximum number of steps for SASC(Q) iteration
SCDIFF_Q = 3E-4                # Convergence criterion of iteration (+Inf-Norm)
EDIFF_Q = 1E-6                 # Global break condition (EDIFF) for SASC(Q)
INISC_Q = 0.1                  # Initial trial step size
LDESC_Q = .FALSE.              # Debug mode   TRUE: on  FALSE: off

#Orbital moments
#LORBMOM = .TRUE.

#Mixer
AMIX      = 0.2
BMIX      = 0.0001
AMIX_MAG  = 0.8
BMIX_MAG  = 0.0001

#LSDA+U
LDAU      = .TRUE.
LDAUTYPE  = 2
LDAUL     = 2 -1
LDAUU     = 5.3 0.0 
LDAUJ     = 0.0 0.0 
LDAUPRINT = 2
LMAXMIX   = 4 
