SYSTEM = NiO
#GGA = PE
GGA_COMPAT = .FALSE.
LASPH = .TRUE.

#Electronic minimization
PREC = Accurate
ENCUT = 600
EDIFF = 1E-9 #OPT
EDIFFG = -1E-3 #OPT
LORBIT  = 11
LREAL = .FALSE.
ISYM = -1
#SYMPREC=1E-8
ISTART  = 0
NPAR  = 4
#ICHARG =  1
VOSKOWN = 1
RWIGS = 1.286 0.820
LWAVE = .FALSE.
LCHARG = .FALSE.
IBRION = -1 #OPT
#ISIF = 6 #OPT
NELMIN = 6
NELM = 500
NSW = 0 #OPT
POTIM = 0.05  #OPT

#DOS
ISMEAR = -5
SIGMA = 0.2
#NEDOS = 3000 #DOS

#Magnetism
ISPIN = 2
LNONCOLLINEAR = .TRUE.
LSORBIT  = .TRUE.

#SASC
I_CONSTRAINED_M = 2
MAGMOM   = 0.75914 0.16146 -1.00688 -0.67954 -0.91284 0.56668 0.00000 0.00000 0.00000 0.00000 0.00000 0.00000 
M_CONSTR = 0.75914 0.16146 -1.00688 -0.67954 -0.91284 0.56668 0.00000 0.00000 0.00000 0.00000 0.00000 0.00000
SCTYPE = 1

#SASC(L)
IDECOSC = 1
LAMBDA   = 0 0 0 0 0 0  0 0 0 0 0 0
#CONSTRL  = 1 1 1 1 1 1  1 1 1 1 1 1
CONSTRL  = 1 1 1 1 1 1  0 0 0 0 0 0
NSC = 100
SCDIFF = 1E-8
SCDECAY = -1
SCDIFFB = 5E-7
#SCCONVB = 2E-7
SCCONVB_GRAD = 0.5 -1
INISC = 0.01
SCCUT = 3
NELMSCI = 1
NELMSCT = 0
IALGOSC = 1
IALGOSC_DIAG = 1
LCUTSC_TRIAL = .TRUE.
LDESC = .FALSE.

#SASC(Q)
LAMBDA_Q   = 10 10 10 10 10 10 10 10 10 10 10 10
CONSTRL_Q  = 1 1 1 1 1 1  1 1 1 1 1 1
#CONSTRL_Q  = 1 1 1 1 1 1  0 0 0 0 0 0
NSC_Q = 0
EDIFF_Q = 1E-6
SCDIFF_Q = 3E-4
INISC_Q = 0.1
LDESC_Q = .FALSE.


#Orbital mom.
#LORBMOM = T

#Mixer
AMIX      = 0.2
BMIX      = 0.00001
AMIX_MAG  = 0.8
BMIX_MAG  = 0.00001

#LSDA+U
LDAU      = .TRUE.
LDAUTYPE  = 2
LDAUL     = 2 -1
LDAUU     = 5.3 0.0 
LDAUJ     = 0.0 0.0 
LDAUPRINT = 2
LMAXMIX   = 4 

