 AFM  NiO                               
   1.00000000000000     
     5.1199158374476816    0.0000000000000000    0.0000000000000000
     4.2652216694718703    2.8320833991167658    0.0000000000000000
     4.2652216694718703    1.2861204859200965    2.5233652399523558
   Ni   O 
     2     2
Direct
  0.0000000000000000  0.0000000000000000  0.0000000000000000
  0.5000000000000000  0.5000000000000000  0.5000000000000000
  0.2500000000000000  0.2500000000000000  0.2500000000000000
  0.7500000000000000  0.7500000000000000  0.7500000000000000