 bcc Fe
   1.000
    2.8328152400000000    0.0000000000000000    0.0000000000000000
    0.0000000000000000    2.8328152400000000    0.0000000000000000
    0.0000000000000000    0.0000000000000000    2.8328152400000000
   Fe
    2
Direct
    0.0065619498357882    0.0053069211310611    0.0044946851820217    Fe1
    0.5157301200287622    0.5061424472528978    0.5046549296222536    Fe2
