KPT-Resolved Value to Generate K-Mesh: 0.040
0
Gamma
   9   9   9
0.0  0.0  0.0
