SYSTEM = Fe
#GGA = PE
GGA_COMPAT    = .FALSE.
LASPH = .TRUE.
#Electronic minimization
PREC = Accurate
ENCUT = 600
EDIFF = 1E-9 #OPT
#EDIFFG = -1E-3 #OPT
LORBIT  = 11
LREAL = .FALSE.
ISYM = -1
ISTART  = 0
NPAR  = 4
#ICHARG =  1
VOSKOWN = 1
RWIGS = 1.164
LWAVE = .FALSE.
LCHARG = .FALSE.
#IBRION = 2 #OPT
#ISIF = 3 #OPT
NELMIN = 10
NELM = 500
#NSW = 500 #OPT
#POTIM = 0.2  #OPT

#DOS
ISMEAR = 1
SIGMA = 0.05
#NEDOS = 3000 #DOS

#Magnetism
ISPIN = 2 #MAG
LNONCOLLINEAR = .TRUE.
LSORBIT  = .TRUE. #NCL

#SASC
I_CONSTRAINED_M = 2 #CON
MAGMOM   = 0.5054 0.5632 1.3516 0.3900 0.0528 1.4982 
M_CONSTR = 0.5054 0.5632 1.3516 0.3900 0.0528 1.4982 
SCTYPE = 1

#SASC(L)
IDECOSC = 0
LAMBDA   = 0 0 0 0 0 0
CONSTRL  = 1 1 1 1 1 1
NSC = 500
SCDIFF = 1E-8
INISC = 0.01
SCCUT = 3
NELMSCI = 1
NELMSCT = 0
IALGOSC = 1
IALGOSC_DIAG = 1
LDESC = .TRUE.

#SASC(Q)
LAMBDA_Q   = 10 10 10 10 10 10
CONSTRL_Q  = 1 1 1 1 1 1
NSC_Q = 500
SCDIFF_Q = 3E-4
INISC_Q = 0.1
LDESC_Q = .FALSE.

#Orbital mom.
#LORBMOM = T

#Mixer
AMIX      = 0.2
BMIX      = 0.0001
AMIX_MAG  = 0.8
BMIX_MAG  = 0.0001
